p cnf 7230 17
-3428 -3911 3912 0
-1590 -3426 -3432 3909 0
1590 -3909 0
3911 -3913 0
3426 -3909 0
1592 -3911 0
-1592 -3430 3910 0
-3912 3913 0
3428 -3913 0
-3910 3911 0
3430 -3911 0
-1594 -3424 -3434 3915 0
-3908 3909 0
3434 -3915 0
3424 -3915 0
1594 -3915 0
3908 -3909 0
